(set-logic QF_UF)
(declare-fun A2 () Bool)
(declare-fun A3 () Bool)
(declare-fun A4 () Bool)
(declare-fun A5 () Bool)
(declare-fun A6 () Bool)
(declare-fun A7 () Bool)
(declare-fun A8 () Bool)
(declare-fun A9 () Bool)
(declare-fun A10 () Bool)
(declare-fun A11 () Bool)
(declare-fun A12 () Bool)
(declare-fun A13 () Bool)
(declare-fun A14 () Bool)
(declare-fun A15 () Bool)
(declare-fun A16 () Bool)
(declare-fun A17 () Bool)
(declare-fun A18 () Bool)
(declare-fun A19 () Bool)
(declare-fun A20 () Bool)
(declare-fun A22 () Bool)
(declare-fun A23 () Bool)
(declare-fun A24 () Bool)
(assert (let ((.def_0 (not A23))) (let ((.def_1 (not A7))) (let ((.def_2 (or .def_1 .def_0))) (let ((.def_3 (or A10 A19))) (let ((.def_4 (and .def_3 .def_2))) (let ((.def_5 (and A12 A17))) (let ((.def_6 (and A11 .def_0))) (let ((.def_7 (not .def_6))) (let ((.def_8 (and .def_7 .def_5))) (let ((.def_9 (or .def_8 .def_4))) (let ((.def_10 (not A15))) (let ((.def_11 (or .def_10 A6))) (let ((.def_12 (not A16))) (let ((.def_13 (or A5 .def_12))) (let ((.def_14 (or .def_13 .def_11))) (let ((.def_15 (not A14))) (let ((.def_16 (or A19 .def_15))) (let ((.def_17 (not .def_16))) (let ((.def_18 (not A3))) (let ((.def_19 (or A22 .def_18))) (let ((.def_20 (not .def_19))) (let ((.def_21 (and .def_20 .def_17))) (let ((.def_22 (not .def_21))) (let ((.def_23 (and .def_22 .def_14))) (let ((.def_24 (not .def_23))) (let ((.def_25 (or .def_24 .def_9))) (let ((.def_26 (not .def_25))) (let ((.def_27 (and A12 A7))) (let ((.def_28 (or A6 A12))) (let ((.def_29 (not .def_28))) (let ((.def_30 (and .def_29 .def_27))) (let ((.def_31 (not .def_30))) (let ((.def_32 (not A13))) (let ((.def_33 (not A4))) (let ((.def_34 (and .def_33 .def_32))) (let ((.def_35 (not .def_34))) (let ((.def_36 (not A20))) (let ((.def_37 (or A8 .def_36))) (let ((.def_38 (and .def_37 .def_35))) (let ((.def_39 (not .def_38))) (let ((.def_40 (or .def_39 .def_31))) (let ((.def_41 (not A24))) (let ((.def_42 (or A4 .def_41))) (let ((.def_43 (not .def_42))) (let ((.def_44 (and A7 A13))) (let ((.def_45 (not .def_44))) (let ((.def_46 (or .def_45 .def_43))) (let ((.def_47 (not .def_46))) (let ((.def_48 (or A3 .def_41))) (let ((.def_49 (not .def_48))) (let ((.def_50 (not A11))) (let ((.def_51 (not A17))) (let ((.def_52 (or .def_51 .def_50))) (let ((.def_53 (not .def_52))) (let ((.def_54 (or .def_53 .def_49))) (let ((.def_55 (and .def_54 .def_47))) (let ((.def_56 (not .def_55))) (let ((.def_57 (and .def_56 .def_40))) (let ((.def_58 (or .def_57 .def_26))) (let ((.def_59 (and .def_50 A5))) (let ((.def_60 (not .def_59))) (let ((.def_61 (or A7 .def_10))) (let ((.def_62 (not .def_61))) (let ((.def_63 (or .def_62 .def_60))) (let ((.def_64 (not .def_63))) (let ((.def_65 (and .def_15 A18))) (let ((.def_66 (not .def_65))) (let ((.def_67 (and A23 A13))) (let ((.def_68 (or .def_67 .def_66))) (let ((.def_69 (not .def_68))) (let ((.def_70 (and .def_69 .def_64))) (let ((.def_71 (not .def_70))) (let ((.def_72 (not A22))) (let ((.def_73 (or .def_72 A12))) (let ((.def_74 (or .def_32 A3))) (let ((.def_75 (or .def_74 .def_73))) (let ((.def_76 (not A2))) (let ((.def_77 (and A6 .def_76))) (let ((.def_78 (not .def_77))) (let ((.def_79 (not A12))) (let ((.def_80 (or .def_79 A4))) (let ((.def_81 (not .def_80))) (let ((.def_82 (and .def_81 .def_78))) (let ((.def_83 (or .def_82 .def_75))) (let ((.def_84 (not .def_83))) (let ((.def_85 (and .def_84 .def_71))) (let ((.def_86 (not .def_85))) (let ((.def_87 (or A9 .def_18))) (let ((.def_88 (or A14 .def_50))) (let ((.def_89 (not .def_88))) (let ((.def_90 (= .def_89 .def_87))) (let ((.def_91 (not .def_90))) (let ((.def_92 (and A4 A22))) (let ((.def_93 (or .def_0 A13))) (let ((.def_94 (and .def_93 .def_92))) (let ((.def_95 (not .def_94))) (let ((.def_96 (and .def_95 .def_91))) (let ((.def_97 (not .def_96))) (let ((.def_98 (not A19))) (let ((.def_99 (= .def_50 .def_98))) (let ((.def_100 (and .def_41 A8))) (let ((.def_101 (or .def_100 .def_99))) (let ((.def_102 (and A19 A17))) (let ((.def_103 (not .def_102))) (let ((.def_104 (or .def_33 A10))) (let ((.def_105 (not .def_104))) (let ((.def_106 (and .def_105 .def_103))) (let ((.def_107 (not .def_106))) (let ((.def_108 (and .def_107 .def_101))) (let ((.def_109 (not .def_108))) (let ((.def_110 (and .def_109 .def_97))) (let ((.def_111 (and .def_110 .def_86))) (let ((.def_112 (not .def_111))) (let ((.def_113 (or .def_112 .def_58))) (let ((.def_114 (not .def_113))) .def_114))))))))))))))))))))))))))))))))))))))))))))))))))))))))))))))))))))))))))))))))))))))))))))))))))))))))))))))))))))
(check-sat)
